
c turning on binary mode checking

c parsing input formula with 11138 variables and 36382 clauses

c finished parsing, read 2933 bytes from proof file

c detected empty clause; start verification via backward checking

c 709 of 36382 clauses in core                            

c 96 of 468 lemmas in core using 1188 resolution steps

c 0 RAT lemmas in core; 0 redundant literals in core lemmas

s VERIFIED

c verification time: 0.063 seconds
